Tried aggregator 2 times.
MIP Presolve eliminated 12 rows and 7 columns.
MIP Presolve modified 90 coefficients.
Aggregator did 90 substitutions.
Reduced MIP has 313 rows, 283 columns, and 730 nonzeros.
Reduced MIP has 180 binaries, 13 generals, 0 SOSs, and 32 indicators.
Presolve time = 0.00 sec. (0.68 ticks)
Found incumbent of value 24.000000 after 0.00 sec. (1.17 ticks)
Probing fixed 21 vars, tightened 44 bounds.
Probing time = 0.00 sec. (1.15 ticks)
Tried aggregator 3 times.
MIP Presolve eliminated 35 rows and 35 columns.
MIP Presolve modified 2 coefficients.
Aggregator did 84 substitutions.
Reduced MIP has 194 rows, 164 columns, and 479 nonzeros.
Reduced MIP has 122 binaries, 31 generals, 0 SOSs, and 20 indicators.
Presolve time = 0.00 sec. (1.07 ticks)
Probing time = 0.00 sec. (0.44 ticks)
Tried aggregator 1 time.
Reduced MIP has 194 rows, 164 columns, and 479 nonzeros.
Reduced MIP has 122 binaries, 31 generals, 0 SOSs, and 20 indicators.
Presolve time = 0.00 sec. (0.24 ticks)
Probing time = 0.00 sec. (0.43 ticks)
Clique table members: 188.
MIP emphasis: balance optimality and feasibility.
MIP search method: dynamic search.
Parallel mode: deterministic, using up to 4 threads.
Root relaxation solution time = 0.00 sec. (0.42 ticks)

        Nodes                                         Cuts/
   Node  Left     Objective  IInf  Best Integer    Best Bound    ItCnt     Gap

*     0+    0                           24.0000        8.0000       48   66.67%
      0     0        8.0000    60       24.0000        8.0000       48   66.67%
      0     0        8.0000    37       24.0000      Cuts: 27       70   66.67%
      0     0        8.0000    26       24.0000      Cuts: 45       99   66.67%
      0     0        8.0000    18       24.0000      Cuts: 25      117   66.67%
      0     0        8.0000    18       24.0000   Impl Bds: 5      124   66.67%
      0     0        8.0000    31       24.0000      Cuts: 18      139   66.67%
*     0+    0                            8.0000        8.0000      139    0.00%
      0     0        cutoff              8.0000        8.0000      139    0.00%
Elapsed time = 0.05 sec. (14.93 ticks, tree = 0.00 MB, solutions = 2)

Clique cuts applied:  5
Cover cuts applied:  6
Implied bound cuts applied:  30
Mixed integer rounding cuts applied:  1
Zero-half cuts applied:  1
Multi commodity flow cuts applied:  1
Lift and project cuts applied:  2
Gomory fractional cuts applied:  17

Root node processing (before b&c):
  Real time             =    0.05 sec. (14.94 ticks)
Parallel b&c, 4 threads:
  Real time             =    0.00 sec. (0.00 ticks)
  Sync time (average)   =    0.00 sec.
  Wait time (average)   =    0.00 sec.
                          ------------
Total (root+branch&cut) =    0.05 sec. (14.94 ticks)
